NAME : Euclidean Random Tour : n = 100, sample = 14 
COMMENT : Coordinates are generated uniformly sampled from [0, 100000] x [0, 100000] 
DIMENSION : 100 
EDGE_WEIGHT_TYPE : EUC_2D 
TOUR_SECTION 
1
29
47
63
61
48
50
100
49
35
86
52
60
62
15
13
11
27
44
83
81
59
40
28
53
70
89
78
10
57
20
9
55
3
51
26
72
67
91
64
84
36
75
95
98
79
65
46
16
7
37
76
32
33
73
17
90
23
42
22
69
66
45
58
96
4
24
77
88
14
56
92
2
18
68
97
54
85
87
19
34
80
8
25
74
12
38
30
93
99
6
71
39
43
41
21
31
5
94
82
-1
